310180
310180
309824
309824
306515
306515
303922
303922
302979
302979
302107
299217
299217
296601
296601
292741
292741
286184
286184
286184
286184
284365
284365
283394
281287
281287
281287
281287
279319
279319
279308
278239
278239
278239
278171
278100
277202
277021
275508
272092
272092
272092
272092
272023
272023
272023
271131
270586
269357
268264
268264
268264
268264
268264
268264
268264
267213
266295
266295
265282
265282
262498
262498
262498
262498
262498
262498
260901
257368
257368
257368
257368
257368
257368
257216
257216
257216
256898
251295
251295
250798
250798
250798
249412
249412
248762
248762
248320
247140
246923
246923
246923
246868
243723
243723
242690
242690
242690
242690
241768
